c *********************************
c * Circuit generated by BenCGen
c *
c * CarrySaveAdder_11_11_11_11_12
c *
c * Ports with 1 gate(s): 2
c * Ports with 2 gate(s): 56
c * Total gates: 58
c *********************************
p cnf 91 194
1 58 0
-1 -58 0
1 -57 0
58 -57 0
-1 -58 57 0
57 -45 0
-57 45 0
1 12 -59 0
-1 12 59 0
1 -12 59 0
-1 -12 -59 0
59 23 -34 0
-59 23 34 0
59 -23 34 0
-59 -23 -34 0
23 -60 0
59 -60 0
-23 -59 60 0
12 -61 0
1 -61 0
-12 -1 61 0
-60 46 0
-61 46 0
60 61 -46 0
2 13 -62 0
-2 13 62 0
2 -13 62 0
-2 -13 -62 0
62 24 -35 0
-62 24 35 0
62 -24 35 0
-62 -24 -35 0
24 -63 0
62 -63 0
-24 -62 63 0
13 -64 0
2 -64 0
-13 -2 64 0
-63 47 0
-64 47 0
63 64 -47 0
3 14 -65 0
-3 14 65 0
3 -14 65 0
-3 -14 -65 0
65 25 -36 0
-65 25 36 0
65 -25 36 0
-65 -25 -36 0
25 -66 0
65 -66 0
-25 -65 66 0
14 -67 0
3 -67 0
-14 -3 67 0
-66 48 0
-67 48 0
66 67 -48 0
4 15 -68 0
-4 15 68 0
4 -15 68 0
-4 -15 -68 0
68 26 -37 0
-68 26 37 0
68 -26 37 0
-68 -26 -37 0
26 -69 0
68 -69 0
-26 -68 69 0
15 -70 0
4 -70 0
-15 -4 70 0
-69 49 0
-70 49 0
69 70 -49 0
5 16 -71 0
-5 16 71 0
5 -16 71 0
-5 -16 -71 0
71 27 -38 0
-71 27 38 0
71 -27 38 0
-71 -27 -38 0
27 -72 0
71 -72 0
-27 -71 72 0
16 -73 0
5 -73 0
-16 -5 73 0
-72 50 0
-73 50 0
72 73 -50 0
6 17 -74 0
-6 17 74 0
6 -17 74 0
-6 -17 -74 0
74 28 -39 0
-74 28 39 0
74 -28 39 0
-74 -28 -39 0
28 -75 0
74 -75 0
-28 -74 75 0
17 -76 0
6 -76 0
-17 -6 76 0
-75 51 0
-76 51 0
75 76 -51 0
7 18 -77 0
-7 18 77 0
7 -18 77 0
-7 -18 -77 0
77 29 -40 0
-77 29 40 0
77 -29 40 0
-77 -29 -40 0
29 -78 0
77 -78 0
-29 -77 78 0
18 -79 0
7 -79 0
-18 -7 79 0
-78 52 0
-79 52 0
78 79 -52 0
8 19 -80 0
-8 19 80 0
8 -19 80 0
-8 -19 -80 0
80 30 -41 0
-80 30 41 0
80 -30 41 0
-80 -30 -41 0
30 -81 0
80 -81 0
-30 -80 81 0
19 -82 0
8 -82 0
-19 -8 82 0
-81 53 0
-82 53 0
81 82 -53 0
9 20 -83 0
-9 20 83 0
9 -20 83 0
-9 -20 -83 0
83 31 -42 0
-83 31 42 0
83 -31 42 0
-83 -31 -42 0
31 -84 0
83 -84 0
-31 -83 84 0
20 -85 0
9 -85 0
-20 -9 85 0
-84 54 0
-85 54 0
84 85 -54 0
10 21 -86 0
-10 21 86 0
10 -21 86 0
-10 -21 -86 0
86 32 -43 0
-86 32 43 0
86 -32 43 0
-86 -32 -43 0
32 -87 0
86 -87 0
-32 -86 87 0
21 -88 0
10 -88 0
-21 -10 88 0
-87 55 0
-88 55 0
87 88 -55 0
11 22 -89 0
-11 22 89 0
11 -22 89 0
-11 -22 -89 0
89 33 -44 0
-89 33 44 0
89 -33 44 0
-89 -33 -44 0
33 -90 0
89 -90 0
-33 -89 90 0
22 -91 0
11 -91 0
-22 -11 91 0
-90 56 0
-91 56 0
90 91 -56 0
